============================[ Problem Statistics ]=============================|                                                                             ||  Number of variables:          4242                                         ||  Number of clauses:            9850                                         ||  Parse time:                   0.25 s                                       ||                                                                             |============================[ Search Statistics ]==============================| Conflicts |          ORIGINAL         |          LEARNT          | Progress ||           |    Vars  Clauses Literals |    Limit  Clauses Lit/Cl |          |===============================================================================|       100 |    1591     6055   380906 |     2220      100     53 | 62.501 % |===============================================================================restarts              : 2conflicts             : 148            (365 /sec)decisions             : 320            (0.00 % random) (790 /sec)propagations          : 9953           (24575 /sec)conflict literals     : 9521           (95.43 % deleted)CPU time              : 0.405 sSATISFIABLE